decision_x1=[0,4];
decision_x2=[0,4];
decision_x3=[0,4];
decision_x4=[0,4];
decision_x5=[0,4];
decision_x6=[0,4];
decision_x7=[0,4];
decision_x8=[0,4];
decision_x9=[0,4];
decision_x10=[0,4];
random_y1=[0,4];
random_y2=[0,4];
random_y3=[0,4];
random_y4=[0,4];
random_y5=[0,4];
random_y6=[0,4];
random_y7=[0,4];
random_y8=[0,4];
random_y9=[0,4];
random_y10=[0,4];
constraint_x2_x1=[
0,0,52|
0,1,81|
0,2,1.9|
0,3,44|
0,4,36|
1,0,60|
1,1,38|
1,2,44|
1,3,95|
1,4,49|
2,0,35|
2,1,72|
2,2,29|
2,3,59|
2,4,41|
3,0,20|
3,1,64|
3,2,89|
3,3,78|
3,4,88|
4,0,77|
4,1,20|
4,2,38|
4,3,3.5|
4,4,46|
];
constraint_x3_x1=[
0,0,79|
0,1,0.94|
0,2,3.3|
0,3,33|
0,4,17|
1,0,12|
1,1,8.7|
1,2,16|
1,3,57|
1,4,36|
2,0,40|
2,1,68|
2,2,93|
2,3,44|
2,4,44|
3,0,49|
3,1,75|
3,2,26|
3,3,20|
3,4,52|
4,0,20|
4,1,67|
4,2,44|
4,3,94|
4,4,39|
];
constraint_x5_x1=[
0,0,74|
0,1,26|
0,2,20|
0,3,52|
0,4,50|
1,0,16|
1,1,93|
1,2,7.7|
1,3,48|
1,4,15|
2,0,31|
2,1,44|
2,2,48|
2,3,94|
2,4,88|
3,0,96|
3,1,66|
3,2,25|
3,3,72|
3,4,52|
4,0,74|
4,1,3.6|
4,2,7.8|
4,3,26|
4,4,58|
];
constraint_x5_x2=[
0,0,0.11|
0,1,62|
0,2,40|
0,3,1.7|
0,4,49|
1,0,22|
1,1,64|
1,2,61|
1,3,15|
1,4,26|
2,0,99|
2,1,7.6|
2,2,66|
2,3,61|
2,4,32|
3,0,13|
3,1,46|
3,2,30|
3,3,97|
3,4,76|
4,0,85|
4,1,19|
4,2,58|
4,3,29|
4,4,93|
];
constraint_x5_x4=[
0,0,62|
0,1,79|
0,2,19|
0,3,11|
0,4,5.4|
1,0,85|
1,1,76|
1,2,78|
1,3,86|
1,4,74|
2,0,54|
2,1,70|
2,2,23|
2,3,14|
2,4,37|
3,0,39|
3,1,91|
3,2,48|
3,3,25|
3,4,38|
4,0,78|
4,1,86|
4,2,13|
4,3,84|
4,4,93|
];
constraint_x6_x2=[
0,0,54|
0,1,8.7|
0,2,49|
0,3,92|
0,4,27|
1,0,22|
1,1,26|
1,2,20|
1,3,6.3|
1,4,79|
2,0,16|
2,1,75|
2,2,49|
2,3,43|
2,4,68|
3,0,14|
3,1,67|
3,2,52|
3,3,58|
3,4,43|
4,0,57|
4,1,20|
4,2,60|
4,3,1|
4,4,55|
];
constraint_x6_x3=[
0,0,88|
0,1,3.3|
0,2,53|
0,3,69|
0,4,84|
1,0,41|
1,1,35|
1,2,96|
1,3,42|
1,4,67|
2,0,67|
2,1,50|
2,2,35|
2,3,83|
2,4,9.1|
3,0,4.1|
3,1,5|
3,2,92|
3,3,15|
3,4,60|
4,0,51|
4,1,55|
4,2,26|
4,3,47|
4,4,30|
];
constraint_x6_x4=[
0,0,76|
0,1,44|
0,2,74|
0,3,21|
0,4,26|
1,0,24|
1,1,98|
1,2,58|
1,3,67|
1,4,99|
2,0,74|
2,1,17|
2,2,13|
2,3,30|
2,4,13|
3,0,46|
3,1,25|
3,2,44|
3,3,57|
3,4,3.3|
4,0,9.9|
4,1,75|
4,2,65|
4,3,39|
4,4,50|
];
constraint_x7_x1=[
0,0,45|
0,1,78|
0,2,70|
0,3,18|
0,4,97|
1,0,72|
1,1,79|
1,2,20|
1,3,77|
1,4,6.1|
2,0,5.2|
2,1,17|
2,2,81|
2,3,0.55|
2,4,2.5|
3,0,55|
3,1,88|
3,2,96|
3,3,62|
3,4,74|
4,0,7.8|
4,1,12|
4,2,46|
4,3,95|
4,4,49|
];
constraint_x7_x4=[
0,0,90|
0,1,37|
0,2,69|
0,3,35|
0,4,70|
1,0,85|
1,1,37|
1,2,89|
1,3,62|
1,4,49|
2,0,61|
2,1,4.7|
2,2,16|
2,3,54|
2,4,88|
3,0,64|
3,1,90|
3,2,35|
3,3,29|
3,4,54|
4,0,67|
4,1,45|
4,2,17|
4,3,33|
4,4,50|
];
constraint_x7_x6=[
0,0,48|
0,1,9|
0,2,71|
0,3,77|
0,4,3.1|
1,0,24|
1,1,98|
1,2,97|
1,3,70|
1,4,92|
2,0,64|
2,1,40|
2,2,83|
2,3,72|
2,4,98|
3,0,84|
3,1,14|
3,2,26|
3,3,14|
3,4,84|
4,0,28|
4,1,80|
4,2,40|
4,3,78|
4,4,75|
];
constraint_x8_x2=[
0,0,56|
0,1,52|
0,2,61|
0,3,5.1|
0,4,43|
1,0,62|
1,1,92|
1,2,92|
1,3,77|
1,4,28|
2,0,67|
2,1,12|
2,2,91|
2,3,62|
2,4,8.7|
3,0,98|
3,1,17|
3,2,22|
3,3,65|
3,4,41|
4,0,97|
4,1,59|
4,2,1e+02|
4,3,15|
4,4,71|
];
constraint_x8_x3=[
0,0,30|
0,1,28|
0,2,1.1|
0,3,38|
0,4,46|
1,0,12|
1,1,79|
1,2,62|
1,3,36|
1,4,26|
2,0,92|
2,1,25|
2,2,1.4|
2,3,74|
2,4,0.17|
3,0,1.4|
3,1,39|
3,2,23|
3,3,84|
3,4,60|
4,0,86|
4,1,98|
4,2,19|
4,3,49|
4,4,49|
];
constraint_x8_x6=[
0,0,76|
0,1,85|
0,2,57|
0,3,72|
0,4,81|
1,0,0.1|
1,1,44|
1,2,3.4|
1,3,72|
1,4,61|
2,0,51|
2,1,44|
2,2,3.3|
2,3,30|
2,4,87|
3,0,17|
3,1,74|
3,2,99|
3,3,41|
3,4,91|
4,0,54|
4,1,98|
4,2,6.5|
4,3,85|
4,4,34|
];
constraint_x9_x1=[
0,0,55|
0,1,55|
0,2,78|
0,3,73|
0,4,1.6|
1,0,59|
1,1,1.3|
1,2,92|
1,3,81|
1,4,66|
2,0,55|
2,1,31|
2,2,29|
2,3,5.2|
2,4,14|
3,0,65|
3,1,22|
3,2,85|
3,3,99|
3,4,58|
4,0,35|
4,1,50|
4,2,59|
4,3,63|
4,4,28|
];
constraint_x9_x3=[
0,0,48|
0,1,76|
0,2,21|
0,3,69|
0,4,82|
1,0,80|
1,1,25|
1,2,49|
1,3,78|
1,4,58|
2,0,70|
2,1,30|
2,2,79|
2,3,58|
2,4,72|
3,0,3.8|
3,1,59|
3,2,66|
3,3,38|
3,4,42|
4,0,98|
4,1,3.1|
4,2,73|
4,3,15|
4,4,59|
];
constraint_x9_x4=[
0,0,28|
0,1,12|
0,2,78|
0,3,77|
0,4,22|
1,0,4.5|
1,1,14|
1,2,82|
1,3,79|
1,4,66|
2,0,46|
2,1,87|
2,2,26|
2,3,14|
2,4,61|
3,0,1e+02|
3,1,31|
3,2,87|
3,3,68|
3,4,8|
4,0,0.67|
4,1,61|
4,2,76|
4,3,66|
4,4,6.8|
];
constraint_x9_x5=[
0,0,83|
0,1,92|
0,2,96|
0,3,29|
0,4,17|
1,0,2|
1,1,9.4|
1,2,20|
1,3,27|
1,4,7.7|
2,0,94|
2,1,47|
2,2,61|
2,3,43|
2,4,24|
3,0,95|
3,1,44|
3,2,39|
3,3,19|
3,4,50|
4,0,20|
4,1,19|
4,2,95|
4,3,41|
4,4,74|
];
constraint_x9_x8=[
0,0,84|
0,1,85|
0,2,21|
0,3,56|
0,4,44|
1,0,83|
1,1,67|
1,2,74|
1,3,11|
1,4,57|
2,0,74|
2,1,77|
2,2,50|
2,3,62|
2,4,97|
3,0,88|
3,1,77|
3,2,48|
3,3,7.6|
3,4,53|
4,0,41|
4,1,16|
4,2,65|
4,3,7.3|
4,4,15|
];
constraint_x10_x1=[
0,0,52|
0,1,36|
0,2,90|
0,3,59|
0,4,89|
1,0,6.5|
1,1,6.9|
1,2,7.4|
1,3,95|
1,4,32|
2,0,41|
2,1,28|
2,2,80|
2,3,76|
2,4,30|
3,0,13|
3,1,57|
3,2,53|
3,3,59|
3,4,49|
4,0,12|
4,1,14|
4,2,46|
4,3,58|
4,4,20|
];
constraint_x10_x2=[
0,0,42|
0,1,53|
0,2,72|
0,3,88|
0,4,60|
1,0,3.9|
1,1,88|
1,2,28|
1,3,38|
1,4,46|
2,0,84|
2,1,90|
2,2,82|
2,3,15|
2,4,33|
3,0,68|
3,1,44|
3,2,55|
3,3,36|
3,4,85|
4,0,18|
4,1,47|
4,2,64|
4,3,33|
4,4,91|
];
constraint_x10_x8=[
0,0,12|
0,1,79|
0,2,94|
0,3,78|
0,4,90|
1,0,92|
1,1,81|
1,2,56|
1,3,66|
1,4,23|
2,0,52|
2,1,74|
2,2,16|
2,3,16|
2,4,86|
3,0,8.6|
3,1,22|
3,2,56|
3,3,48|
3,4,85|
4,0,6.3|
4,1,70|
4,2,30|
4,3,90|
4,4,28|
];
constraint_x10_x9=[
0,0,59|
0,1,11|
0,2,39|
0,3,89|
0,4,36|
1,0,58|
1,1,99|
1,2,95|
1,3,58|
1,4,89|
2,0,72|
2,1,97|
2,2,67|
2,3,23|
2,4,18|
3,0,38|
3,1,44|
3,2,89|
3,3,76|
3,4,93|
4,0,25|
4,1,67|
4,2,30|
4,3,95|
4,4,85|
];
constraint_x1_y1=[
0,0,95|
0,1,91|
0,2,43|
0,3,48|
0,4,90|
1,0,28|
1,1,74|
1,2,71|
1,3,17|
1,4,49|
2,0,56|
2,1,62|
2,2,92|
2,3,7.2|
2,4,96|
3,0,18|
3,1,6.2|
3,2,17|
3,3,89|
3,4,20|
4,0,60|
4,1,69|
4,2,31|
4,3,3.3|
4,4,73|
];
constraint_x2_y2=[
0,0,85|
0,1,33|
0,2,48|
0,3,87|
0,4,42|
1,0,57|
1,1,53|
1,2,42|
1,3,5.3|
1,4,87|
2,0,92|
2,1,16|
2,2,78|
2,3,44|
2,4,31|
3,0,34|
3,1,42|
3,2,53|
3,3,84|
3,4,44|
4,0,78|
4,1,15|
4,2,89|
4,3,94|
4,4,15|
];
constraint_x3_y3=[
0,0,33|
0,1,91|
0,2,56|
0,3,84|
0,4,57|
1,0,76|
1,1,66|
1,2,67|
1,3,32|
1,4,63|
2,0,6.5|
2,1,24|
2,2,72|
2,3,37|
2,4,21|
3,0,80|
3,1,56|
3,2,26|
3,3,42|
3,4,26|
4,0,80|
4,1,7.2|
4,2,12|
4,3,56|
4,4,46|
];
constraint_x4_y4=[
0,0,3.1|
0,1,88|
0,2,69|
0,3,63|
0,4,9|
1,0,48|
1,1,99|
1,2,17|
1,3,98|
1,4,81|
2,0,11|
2,1,36|
2,2,17|
2,3,45|
2,4,26|
3,0,29|
3,1,69|
3,2,34|
3,3,94|
3,4,46|
4,0,7.3|
4,1,50|
4,2,61|
4,3,91|
4,4,35|
];
constraint_x5_y5=[
0,0,33|
0,1,95|
0,2,92|
0,3,12|
0,4,24|
1,0,0.91|
1,1,22|
1,2,5.3|
1,3,31|
1,4,66|
2,0,34|
2,1,16|
2,2,71|
2,3,96|
2,4,8.8|
3,0,26|
3,1,8.6|
3,2,28|
3,3,80|
3,4,43|
4,0,52|
4,1,39|
4,2,89|
4,3,55|
4,4,53|
];
constraint_x6_y6=[
0,0,34|
0,1,7.6|
0,2,2|
0,3,46|
0,4,81|
1,0,83|
1,1,25|
1,2,39|
1,3,36|
1,4,46|
2,0,3|
2,1,77|
2,2,56|
2,3,3.2|
2,4,37|
3,0,8.3|
3,1,47|
3,2,95|
3,3,86|
3,4,19|
4,0,7.6|
4,1,45|
4,2,57|
4,3,3.5|
4,4,8.9|
];
constraint_x7_y7=[
0,0,89|
0,1,1.2|
0,2,13|
0,3,97|
0,4,35|
1,0,23|
1,1,58|
1,2,40|
1,3,21|
1,4,34|
2,0,26|
2,1,98|
2,2,90|
2,3,50|
2,4,44|
3,0,83|
3,1,37|
3,2,21|
3,3,34|
3,4,47|
4,0,99|
4,1,97|
4,2,91|
4,3,59|
4,4,53|
];
constraint_x8_y8=[
0,0,28|
0,1,30|
0,2,57|
0,3,14|
0,4,34|
1,0,45|
1,1,33|
1,2,4.4|
1,3,99|
1,4,81|
2,0,26|
2,1,27|
2,2,61|
2,3,15|
2,4,61|
3,0,35|
3,1,36|
3,2,73|
3,3,66|
3,4,51|
4,0,18|
4,1,90|
4,2,52|
4,3,86|
4,4,92|
];
constraint_x9_y9=[
0,0,28|
0,1,46|
0,2,78|
0,3,60|
0,4,41|
1,0,57|
1,1,9.8|
1,2,56|
1,3,71|
1,4,54|
2,0,31|
2,1,64|
2,2,90|
2,3,97|
2,4,92|
3,0,52|
3,1,77|
3,2,30|
3,3,30|
3,4,20|
4,0,20|
4,1,58|
4,2,42|
4,3,4.1|
4,4,46|
];
constraint_x10_y10=[
0,0,92|
0,1,42|
0,2,44|
0,3,49|
0,4,40|
1,0,96|
1,1,13|
1,2,82|
1,3,64|
1,4,67|
2,0,0.87|
2,1,15|
2,2,43|
2,3,39|
2,4,98|
3,0,28|
3,1,91|
3,2,9.4|
3,3,26|
3,4,22|
4,0,83|
4,1,48|
4,2,47|
4,3,56|
4,4,53|
];
initial_distribution_y1=[0.23,0.091,0.25,0.25,0.18];
initial_distribution_y2=[0.069,0.24,0.35,0.24,0.099];
initial_distribution_y3=[0.27,0.18,0.23,0.11,0.21];
initial_distribution_y4=[0.16,0.23,0.37,0.21,0.039];
initial_distribution_y5=[0.28,0.03,0.28,0.16,0.25];
initial_distribution_y6=[0.27,0.043,0.031,0.37,0.29];
initial_distribution_y7=[0.25,0.14,0.14,0.097,0.37];
initial_distribution_y8=[0.038,0.29,0.29,0.29,0.091];
initial_distribution_y9=[0.2,0.15,0.1,0.22,0.32];
initial_distribution_y10=[0.31,0.28,0.14,0.21,0.055];
transition_y1=[
0.28,0.3,0.2,0.12,0.11|
0.34,0.086,0.29,0.12,0.16|
0.16,0.076,0.34,0.11,0.31|
0.27,0.28,0.089,0.21,0.15|
0.19,0.22,0.02,0.28,0.29|
];
transition_y2=[
0.15,0.081,0.26,0.23,0.28|
0.36,0.15,0.12,0.28,0.09|
0.27,0.27,0.22,0.14,0.1|
0.29,0.17,0.049,0.24,0.26|
0.048,0.064,0.19,0.22,0.48|
];
transition_y3=[
0.084,0.26,0.33,0.26,0.06|
0.23,0.18,0.11,0.25,0.23|
0.14,0.21,0.27,0.16,0.22|
0.22,0.24,0.25,0.12,0.17|
0.061,0.019,0.19,0.41,0.33|
];
transition_y4=[
0.24,0.11,0.18,0.29,0.18|
0.28,0.2,0.17,0.26,0.083|
0.25,0.25,0.15,0.23,0.12|
0.0066,0.1,0.25,0.24,0.4|
0.22,0.36,0.24,0.021,0.15|
];
transition_y5=[
0.31,0.13,0.21,0.27,0.076|
0.11,0.37,0.069,0.13,0.32|
0.15,0.25,0.15,0.36,0.088|
0.22,0.4,0.12,0.12,0.15|
0.33,0.25,0.1,0.11,0.21|
];
transition_y6=[
0.16,0.18,0.33,0.086,0.24|
0.22,0.13,0.18,0.27,0.2|
0.13,0.094,0.23,0.25,0.29|
0.36,0.2,0.046,0.045,0.35|
0.16,0.15,0.23,0.27,0.19|
];
transition_y7=[
0.041,0.21,0.35,0.12,0.28|
0.35,0.048,0.058,0.17,0.37|
0.06,0.28,0.22,0.3,0.15|
0.15,0.58,0.21,0.027,0.04|
0.062,0.25,0.17,0.27,0.24|
];
transition_y8=[
0.27,0.0073,0.31,0.19,0.22|
0.21,0.15,0.32,0.3,0.013|
0.2,0.22,0.23,0.19,0.15|
0.18,0.21,0.2,0.17,0.24|
0.015,0.011,0.3,0.17,0.51|
];
transition_y9=[
0.21,0.38,0.047,0.15,0.21|
0.3,0.063,0.31,0.086,0.24|
0.013,0.23,0.31,0.29,0.15|
0.1,0.31,0.15,0.34,0.095|
0.19,0.25,0.19,0.28,0.092|
];
transition_y10=[
0.013,0.18,0.11,0.29,0.4|
0.11,0.07,0.3,0.049,0.47|
0.16,0.17,0.17,0.25,0.26|
0.23,0.18,0.089,0.13,0.36|
0.24,0.18,0.25,0.24,0.08|
];
